# Solution for model GasLib-40
# Objective value = 8.7755109938509150e+01
loadshed[innode_1] 0
loadshed[innode_2] 0
loadshed[innode_3] 0
loadshed[innode_4] 0
loadshed[innode_5] 0
loadshed[innode_6] 0
loadshed[innode_7] 0
loadshed[innode_8] 0
loadshed[source_1] 4.9133741299222211e-02
loadshed[source_2] 1.9568071138679655e-01
loadshed[source_3] 3.1028046631878359e-01
loadshed[sink_1] 1
loadshed[sink_2] 0
loadshed[sink_3] 0
loadshed[sink_4] 0
loadshed[sink_5] 0
loadshed[sink_6] 0
loadshed[sink_7] 0
loadshed[sink_8] 0
loadshed[sink_9] 0
loadshed[sink_10] 0
loadshed[sink_11] 0
loadshed[sink_12] 1
loadshed[sink_13] 0
loadshed[sink_14] 0
loadshed[sink_15] 0
loadshed[sink_16] 0
loadshed[sink_17] 0
loadshed[sink_18] 6.7039792896640393e-01
loadshed[sink_19] 0
loadshed[sink_20] 0
loadshed[sink_21] 1
loadshed[sink_22] 7.2247627779401191e-01
loadshed[sink_23] 0
loadshed[sink_24] 9.7304334361976186e-01
loadshed[sink_25] 0
loadshed[sink_26] 0
loadshed[sink_27] 0
loadshed[sink_28] 0
loadshed[sink_29] 0
flow[source_1,sink_3] 1.5032271096752226e+02
flow[innode_1,sink_16] 1.6354166666666970e+01
flow[innode_6,sink_13] 5.4412139982439065e+00
flow[sink_13,sink_14] -1.0912952668422761e+01
flow[sink_14,sink_10] -2.7267119335089429e+01
flow[sink_25,sink_26] 0
flow[sink_26,sink_9] 1.6354166666669244e+01
flow[sink_9,sink_18] 0
flow[sink_26,sink_4] -32.7083333333359
flow[sink_4,sink_20] 0
flow[sink_18,sink_6] -5.3903672033619374e+00
flow[sink_25,innode_8] -1.1761437763418589e+02
flow[sink_6,sink_7] -2.6283203076939060e+01
flow[sink_6,sink_22] 4.5386692069104306e+00
flow[sink_7,sink_24] 4.4085365121848108e-01
flow[sink_22,sink_1] 0
flow[sink_24,sink_21] 0
flow[sink_21,sink_12] 0
flow[sink_7,sink_5] -43.0782233948242
flow[sink_5,sink_17] -5.9432390061490864e+01
flow[sink_17,sink_4] 4.9062500000002572e+01
flow[sink_17,sink_8] -1.2484905672816012e+02
flow[sink_3,sink_23] 16.3541666666697
flow[sink_8,sink_20] -1.4120322339482669e+02
flow[sink_25,sink_20] 1.5755739006149338e+02
flow[sink_25,sink_15] -6.1738393092218047e+01
flow[sink_15,sink_29] -4.5729295305169479e+01
flow[sink_29,sink_28] 1.6354166666667879e+01
flow[sink_29,sink_2] 48.7174311203819
flow[sink_2,sink_15] 3.2363264453715239e+01
flow[sink_29,innode_7] -1.2715505975888594e+02
flow[innode_4,sink_19] 4.1846072863681741e+01
flow[sink_19,innode_3] 3.7248532048373690e+01
flow[innode_4,innode_5] 6.7191879804741120e+01
flow[sink_27,innode_5] -6.7191879804741120e+01
flow[sink_27,sink_19] 5.0837713138074456e+01
flow[sink_10,sink_11] 3.2708333333333641e+01
flow[sink_10,innode_2] -3.9081087286716084e+01
flow[sink_10,innode_3] -3.7248532048373690e+01
flow[innode_6,sink_25] -5.4412139982439065e+00
flow[sink_11,innode_1] 1.6354166666666970e+01
flow[sink_19,innode_2] 3.9081087286716084e+01
flow[source_3,innode_4] 1.0903795266842286e+02
flow[source_2,innode_7] 1.2715505975888594e+02
flow[sink_3,innode_8] 1.1761437763418589e+02
pressure[innode_1] 77.1006607830076
pressure[innode_2] 7.9317958963890888e+01
pressure[innode_3] 79.2354763076083
pressure[innode_4] 81.01325
pressure[innode_5] 80.9670318820315
pressure[innode_6] 7.5973132478160764e+01
pressure[innode_7] 81.01325
pressure[innode_8] 8.0510778602592609e+01
pressure[source_1] 81.01325
pressure[source_2] 81.01325
pressure[source_3] 81.01325
pressure[sink_1] 1.0132500000000002e+00
pressure[sink_2] 7.6378282769589049e+01
pressure[sink_3] 8.0510778602592609e+01
pressure[sink_4] 2.1986167318357044e+01
pressure[sink_5] 1.9433890819837252e+01
pressure[sink_6] 1.1571888535620651e+00
pressure[sink_7] 1.5179945821344132e+00
pressure[sink_8] 2.8572053549991182e+01
pressure[sink_9] 1.6848706081468574e+01
pressure[sink_10] 7.7252362090611143e+01
pressure[sink_11] 77.1006607830076
pressure[sink_12] 1.01325
pressure[sink_13] 7.5943135974699771e+01
pressure[sink_14] 7.5962665633077933e+01
pressure[sink_15] 7.6272623843896270e+01
pressure[sink_16] 7.6079010948189918e+01
pressure[sink_17] 2.3861174289764190e+01
pressure[sink_18] 1.01325
pressure[sink_19] 7.9317958963890888e+01
pressure[sink_20] 3.8411932441408048e+01
pressure[sink_21] 1.01325
pressure[sink_22] 1.0132500000000002e+00
pressure[sink_23] 8.0346060590932822e+01
pressure[sink_24] 1.01325
pressure[sink_25] 7.5973132478160764e+01
pressure[sink_26] 1.7827545165410996e+01
pressure[sink_27] 8.0409463436896147e+01
pressure[sink_28] 7.7317068007206927e+01
pressure[sink_29] 77.6123502808241
interdiction[source_1,sink_3] 0
interdiction[innode_1,sink_16] 0
interdiction[innode_6,sink_13] 0
interdiction[sink_13,sink_14] 0
interdiction[sink_14,sink_10] 0
interdiction[sink_25,sink_26] 1
interdiction[sink_26,sink_9] 0
interdiction[sink_9,sink_18] 1
interdiction[sink_26,sink_4] 0
interdiction[sink_4,sink_20] 1
interdiction[sink_18,sink_6] 0
interdiction[sink_25,innode_8] 0
interdiction[sink_6,sink_7] 0
interdiction[sink_6,sink_22] 0
interdiction[sink_7,sink_24] 0
interdiction[sink_22,sink_1] 0
interdiction[sink_24,sink_21] 0
interdiction[sink_21,sink_12] 0
interdiction[sink_7,sink_5] 0
interdiction[sink_5,sink_17] 0
interdiction[sink_17,sink_4] 0
interdiction[sink_17,sink_8] 0
interdiction[sink_3,sink_23] 0
interdiction[sink_8,sink_20] 0
interdiction[sink_25,sink_20] 0
interdiction[sink_25,sink_15] 0
interdiction[sink_15,sink_29] 0
interdiction[sink_29,sink_28] 0
interdiction[sink_29,sink_2] 0
interdiction[sink_2,sink_15] 0
interdiction[sink_29,innode_7] 0
interdiction[innode_4,sink_19] 0
interdiction[sink_19,innode_3] 0
interdiction[innode_4,innode_5] 0
interdiction[sink_27,innode_5] 0
interdiction[sink_27,sink_19] 0
interdiction[sink_10,sink_11] 0
interdiction[sink_10,innode_2] 0
interdiction[sink_10,innode_3] 0
interdiction[innode_6,sink_25] 0
interdiction[sink_11,innode_1] 0
interdiction[sink_19,innode_2] 0
interdiction[source_3,innode_4] 0
interdiction[source_2,innode_7] 0
interdiction[sink_3,innode_8] 0
WCcheckFlow[source_1,sink_3] 39
WCcheckFlow[innode_1,sink_16] 1
WCcheckFlow[innode_6,sink_13] 13
WCcheckFlow[sink_13,sink_14] 12
WCcheckFlow[sink_14,sink_10] 11
WCcheckFlow[sink_25,sink_26] 0
WCcheckFlow[sink_26,sink_9] 1
WCcheckFlow[sink_9,sink_18] 0
WCcheckFlow[sink_26,sink_4] -2
WCcheckFlow[sink_4,sink_20] 0
WCcheckFlow[sink_18,sink_6] -1
WCcheckFlow[sink_25,innode_8] -36
WCcheckFlow[sink_6,sink_7] -4
WCcheckFlow[sink_6,sink_22] 2
WCcheckFlow[sink_7,sink_24] 3
WCcheckFlow[sink_22,sink_1] 1
WCcheckFlow[sink_24,sink_21] 2
WCcheckFlow[sink_21,sink_12] 1
WCcheckFlow[sink_7,sink_5] -8
WCcheckFlow[sink_5,sink_17] -9
WCcheckFlow[sink_17,sink_4] 3
WCcheckFlow[sink_17,sink_8] -13
WCcheckFlow[sink_3,sink_23] 1
WCcheckFlow[sink_8,sink_20] -14
WCcheckFlow[sink_25,sink_20] 15
WCcheckFlow[sink_25,sink_15] 6
WCcheckFlow[sink_15,sink_29] 5
WCcheckFlow[sink_29,sink_28] 1
WCcheckFlow[sink_29,sink_2] 1
WCcheckFlow[sink_2,sink_15] 0
WCcheckFlow[sink_29,innode_7] 2
WCcheckFlow[innode_4,sink_19] -4
WCcheckFlow[sink_19,innode_3] -5
WCcheckFlow[innode_4,innode_5] 2
WCcheckFlow[sink_27,innode_5] -1
WCcheckFlow[sink_27,sink_19] 0
WCcheckFlow[sink_10,sink_11] 3
WCcheckFlow[sink_10,innode_2] 1
WCcheckFlow[sink_10,innode_3] 6
WCcheckFlow[innode_6,sink_25] -14
WCcheckFlow[sink_11,innode_1] 2
WCcheckFlow[sink_19,innode_2] 0
WCcheckFlow[source_3,innode_4] -1
WCcheckFlow[source_2,innode_7] -1
WCcheckFlow[sink_3,innode_8] 37
